Gurobi Optimizer version 9.1.2 build v9.1.2rc0 (linux64)
Thread count: 36 physical cores, 72 logical processors, using up to 32 threads
Optimize a model with 12 rows, 57 columns and 590 nonzeros
Model fingerprint: 0xf32eec78
Model has 47 quadratic constraints
Coefficient statistics:
  Matrix range     [2e-05, 3e+00]
  QMatrix range    [1e+00, 1e+00]
  QLMatrix range   [1e+00, 1e+00]
  Objective range  [8e-03, 7e-01]
  Bounds range     [1e+00, 1e+00]
  RHS range        [1e+00, 1e+00]
Presolve removed 9 rows and 0 columns

Continuous model is non-convex -- solving as a MIP.

Presolve removed 9 rows and 0 columns
Presolve time: 0.00s
Presolved: 189 rows, 57 columns, 443 nonzeros
Presolved model has 47 bilinear constraint(s)
Variable types: 57 continuous, 0 integer (0 binary)

Root relaxation: objective -1.743721e+00, 44 iterations, 0.00 seconds

    Nodes    |    Current Node    |     Objective Bounds      |     Work
 Expl Unexpl |  Obj  Depth IntInf | Incumbent    BestBd   Gap | It/Node Time

     0     0   -1.74372    0   38          -   -1.74372      -     -    0s
H    0     0                       0.6147548   -1.74372   384%     -    0s
     0     0   -1.64739    0    1    0.61475   -1.64739   368%     -    0s
H    0     0                      -1.6450460   -1.64739  0.14%     -    0s
     0     0     cutoff    0        -1.64505   -1.64505  0.00%     -    0s

Cutting planes:
  RLT: 25
  BQP: 3

Explored 1 nodes (76 simplex iterations) in 0.01 seconds
Thread count was 32 (of 72 available processors)

Solution count 2: -1.64505 0.614755 
No other solutions better than -1.64505

Optimal solution found (tolerance 1.00e-04)
Best objective -1.645045978473e+00, best bound -1.645045978473e+00, gap 0.0000%

User-callback calls 78, time in user-callback 0.00 sec
Gurobi Optimizer version 9.1.2 build v9.1.2rc0 (linux64)
Thread count: 36 physical cores, 72 logical processors, using up to 32 threads
Optimize a model with 24 rows, 120 columns and 2480 nonzeros
Model fingerprint: 0xd83bd0b4
Model has 100 quadratic constraints
Coefficient statistics:
  Matrix range     [8e-06, 4e+00]
  QMatrix range    [1e+00, 1e+00]
  QLMatrix range   [1e+00, 1e+00]
  Objective range  [6e-03, 1e+00]
  Bounds range     [1e+00, 1e+00]
  RHS range        [1e+00, 1e+00]
Presolve removed 17 rows and 0 columns

Continuous model is non-convex -- solving as a MIP.

Presolve removed 17 rows and 0 columns
Presolve time: 0.00s
Presolved: 407 rows, 120 columns, 1232 nonzeros
Presolved model has 100 bilinear constraint(s)
Variable types: 120 continuous, 0 integer (0 binary)

Root relaxation: objective -8.973600e+00, 119 iterations, 0.00 seconds

    Nodes    |    Current Node    |     Objective Bounds      |     Work
 Expl Unexpl |  Obj  Depth IntInf | Incumbent    BestBd   Gap | It/Node Time

     0     0   -8.97360    0   84          -   -8.97360      -     -    0s
H    0     0                       1.4781420   -8.97360   707%     -    0s
     0     0   -6.31917    0  100    1.47814   -6.31917   528%     -    0s
     0     0   -6.31202    0  100    1.47814   -6.31202   527%     -    0s
     0     0   -5.53217    0   90    1.47814   -5.53217   474%     -    0s
H    0     0                      -0.7112323   -5.53217   678%     -    0s
     0     0   -5.43313    0   90   -0.71123   -5.43313   664%     -    0s
     0     0   -5.25491    0   90   -0.71123   -5.25491   639%     -    0s
     0     0   -5.15797    0   90   -0.71123   -5.15797   625%     -    0s
     0     0   -5.15428    0   90   -0.71123   -5.15428   625%     -    0s
     0     0   -5.14235    0   90   -0.71123   -5.14235   623%     -    0s
     0     0   -5.14104    0   90   -0.71123   -5.14104   623%     -    0s
     0     0   -5.13715    0   90   -0.71123   -5.13715   622%     -    0s
     0     0   -5.13615    0   90   -0.71123   -5.13615   622%     -    0s
     0     0   -5.13470    0   90   -0.71123   -5.13470   622%     -    0s
H    0     0                      -1.9137420   -5.13470   168%     -    0s
H    0     0                      -1.9161176   -5.13470   168%     -    0s
     0     2   -5.13470    0   90   -1.91612   -5.13470   168%     -    0s
H  833   834                      -2.6515571   -4.51449  70.3%  28.8    0s
*  945   966              35      -2.8635425   -4.51449  57.7%  27.2    0s
* 1100  1116              40      -3.0812184   -4.51449  46.5%  25.6    0s
* 1102  1116              41      -3.0812372   -4.51449  46.5%  25.5    0s
* 1127  1116              19      -4.0867559   -4.51449  10.5%  25.4    0s

Cutting planes:
  RLT: 83
  BQP: 15
  PSD: 17

Explored 1855 nodes (34716 simplex iterations) in 0.63 seconds
Thread count was 32 (of 72 available processors)

Solution count 9: -4.08676 -3.08124 -3.08122 ... 1.47814
No other solutions better than -4.08676

Optimal solution found (tolerance 1.00e-04)
Best objective -4.086755922545e+00, best bound -4.086755922545e+00, gap 0.0000%

User-callback calls 3990, time in user-callback 0.00 sec



objective value: -4.086755922544597
objective bound: -4.086755922544597
x_opt: [0.0, 1.0, 1.0, 1.0, 1.0, 0.0, 0.0, 0.0, 0.2794978742128178, 1.0, 0.0, 0.22515607155294115, 1.0, 1.0, 1.0, 0.0, 0.0, 0.0, 0.053100767213279165, 0.4949207880657804]
GUROBI solution time: 0.6260340213775635




